language Essence 1.3

letting blksize_delta be function(1 --> 6, 2 --> 6, 3 --> 2, 4 --> 6, 5 --> 6, 6 --> 6)
letting maxcars be function(1 --> 10, 2 --> 10, 3 --> 10, 4 --> 10, 5 --> 10, 6 --> 10)
letting n_cars be 180
letting n_classes be 2
letting n_options be 6
letting quantity be function(1 --> 90, 2 --> 90)
letting usage be relation((1, 3), (1, 4), (1, 5), (2, 1), (2, 2), (2, 6))
$ Visualisation for usage
$ 1 3
$ 1 4
$ 1 5
$ 2 1
$ 2 2
$ 2 6

